NAME : rnd10_50.tsp
TYPE : TSP
DIMENSION : 50
EDGE_WEIGHT_TYPE : EUC_2D
NODE_COORD_SECTION
1 976 380
2 814 881
3 313 360
4 915 322
5 550 547
6 249 880
7 745 127
8 756 391
9 714 536
10 503 925
11 858 479
12 205 461
13 593 753
14 951 300
15 749 308
16 726 295
17 823 114
18 527 788
19 388 679
20 20 394
21 932 826
22 395 231
23 992 303
24 260 977
25 52 252
26 842 702
27 25 568
28 890 333
29 136 254
30 373 705
31 295 927
32 193 295
33 56 600
34 254 969
35 967 330
36 108 94
37 427 449
38 13 86
39 871 943
40 935 370
41 395 403
42 887 182
43 713 972
44 540 483
45 602 300
46 485 591
47 385 472
48 254 625
49 644 506
50 902 684
